n = 19;
lu = [|307, 324
      |-301, 284
      |-55, 67
      |-267, 22
      |-223, -40
      |-202, -33
      |-344, -299
      |-57, 152
      |9, 169
      |-320, -102
      |64, 205
      |87, 114
      |-99, 340
      |-95, 188
      |52, 116
      |-300, -134
      |-19, 158
      |-38, 66
      |-230, 103|];
